z3.smt2
(declare-const s0 (_ BitVec 64))
(declare-const s1 (_ BitVec 64))
; doubles in browser only 52 bit significand
(define-fun mask((a (_ BitVec 64))) (_ BitVec 64)
  (bvand a #x000FFFFFFFFFFFFF)
)
(define-fun x1() (_ BitVec 64)
  (bvxor (bvshl s0 (_ bv23 64)) s0)
  )
(define-fun y1() (_ BitVec 64)
  s1
  )
(define-fun x2() (_ BitVec 64)
  (bvxor (bvshl y1 (_ bv23 64)) y1)
  )
(define-fun y2() (_ BitVec 64)
  (bvxor (bvxor (bvxor x1 y1) (bvlshr x1 (_ bv17 64))) (bvlshr y1 (_ bv26 64)))
  )
(define-fun x3() (_ BitVec 64)
  (bvxor (bvshl y2 (_ bv23 64)) y2)
  )
(define-fun y3() (_ BitVec 64)
  (bvxor (bvxor (bvxor x2 y2) (bvlshr x2 (_ bv17 64))) (bvlshr y2 (_ bv26 64)))
  )
(define-fun xs128p ((x(_ BitVec 64)) (y(_ BitVec 64))) (_ BitVec 64)
  (bvadd y (bvxor (bvxor (bvxor x y) (bvlshr x (_ bv17 64))) (bvlshr y (_ bv26 64))))
)   
(assert (= (mask (xs128p x1 y1)) (_ bv319740938083548 64)))  
(assert (= (mask (xs128p x2 y2)) (_ bv2186483869590985 64)))
(assert (= (mask (xs128p x3 y3)) (_ bv2249090182553035 64)))

(check-sat)
(get-model)
